% 8 x 8 grid, vertices numbered row by row, distance k = 1
n = 64;
m = 112;
k = 1;
from = [1, 1, 2, 2, 3, 3, 4, 4, 5, 5, 6, 6, 7, 7, 8, 9, 9, 10, 10, 11, 11, 12, 12, 13, 13, 14, 14, 15, 15, 16, 17, 17, 18, 18, 19, 19, 20, 20, 21, 21, 22, 22, 23, 23, 24, 25, 25, 26, 26, 27, 27, 28, 28, 29, 29, 30, 30, 31, 31, 32, 33, 33, 34, 34, 35, 35, 36, 36, 37, 37, 38, 38, 39, 39, 40, 41, 41, 42, 42, 43, 43, 44, 44, 45, 45, 46, 46, 47, 47, 48, 49, 49, 50, 50, 51, 51, 52, 52, 53, 53, 54, 54, 55, 55, 56, 57, 58, 59, 60, 61, 62, 63];
to   = [2, 9, 3, 10, 4, 11, 5, 12, 6, 13, 7, 14, 8, 15, 16, 10, 17, 11, 18, 12, 19, 13, 20, 14, 21, 15, 22, 16, 23, 24, 18, 25, 19, 26, 20, 27, 21, 28, 22, 29, 23, 30, 24, 31, 32, 26, 33, 27, 34, 28, 35, 29, 36, 30, 37, 31, 38, 32, 39, 40, 34, 41, 35, 42, 36, 43, 37, 44, 38, 45, 39, 46, 40, 47, 48, 42, 49, 43, 50, 44, 51, 45, 52, 46, 53, 47, 54, 48, 55, 56, 50, 57, 51, 58, 52, 59, 53, 60, 54, 61, 55, 62, 56, 63, 64, 58, 59, 60, 61, 62, 63, 64];
