% 7 x 7 grid, vertices numbered row by row
n = 49;
m = 84;
from = [1, 1, 2, 2, 3, 3, 4, 4, 5, 5, 6, 6, 7, 8, 8, 9, 9, 10, 10, 11, 11, 12, 12, 13, 13, 14, 15, 15, 16, 16, 17, 17, 18, 18, 19, 19, 20, 20, 21, 22, 22, 23, 23, 24, 24, 25, 25, 26, 26, 27, 27, 28, 29, 29, 30, 30, 31, 31, 32, 32, 33, 33, 34, 34, 35, 36, 36, 37, 37, 38, 38, 39, 39, 40, 40, 41, 41, 42, 43, 44, 45, 46, 47, 48];
to   = [2, 8, 3, 9, 4, 10, 5, 11, 6, 12, 7, 13, 14, 9, 15, 10, 16, 11, 17, 12, 18, 13, 19, 14, 20, 21, 16, 22, 17, 23, 18, 24, 19, 25, 20, 26, 21, 27, 28, 23, 29, 24, 30, 25, 31, 26, 32, 27, 33, 28, 34, 35, 30, 36, 31, 37, 32, 38, 33, 39, 34, 40, 35, 41, 42, 37, 43, 38, 44, 39, 45, 40, 46, 41, 47, 42, 48, 49, 44, 45, 46, 47, 48, 49];
