% 6 x 6 grid, vertices numbered row by row
n = 36;
m = 60;
from = [1, 1, 2, 2, 3, 3, 4, 4, 5, 5, 6, 7, 7, 8, 8, 9, 9, 10, 10, 11, 11, 12, 13, 13, 14, 14, 15, 15, 16, 16, 17, 17, 18, 19, 19, 20, 20, 21, 21, 22, 22, 23, 23, 24, 25, 25, 26, 26, 27, 27, 28, 28, 29, 29, 30, 31, 32, 33, 34, 35];
to   = [2, 7, 3, 8, 4, 9, 5, 10, 6, 11, 12, 8, 13, 9, 14, 10, 15, 11, 16, 12, 17, 18, 14, 19, 15, 20, 16, 21, 17, 22, 18, 23, 24, 20, 25, 21, 26, 22, 27, 23, 28, 24, 29, 30, 26, 31, 27, 32, 28, 33, 29, 34, 30, 35, 36, 32, 33, 34, 35, 36];
