% connected random graph, 50 vertices and 80 edges (networkx gnm_random_graph, seed 2027)
n = 50;
m = 80;
from = [1, 1, 1, 2, 2, 2, 3, 4, 5, 5, 5, 5, 6, 6, 6, 6, 7, 7, 7, 8, 8, 9, 9, 9, 9, 10, 11, 11, 12, 12, 12, 12, 12, 13, 13, 14, 14, 15, 16, 16, 17, 17, 17, 17, 17, 17, 18, 18, 18, 19, 20, 21, 21, 21, 22, 22, 22, 22, 24, 24, 24, 25, 25, 26, 26, 27, 27, 27, 28, 28, 28, 30, 33, 34, 36, 36, 40, 41, 41, 48];
to   = [2, 6, 9, 31, 38, 48, 8, 50, 20, 32, 38, 41, 20, 35, 42, 49, 15, 18, 30, 40, 41, 40, 42, 43, 48, 14, 15, 25, 18, 23, 26, 30, 39, 30, 50, 15, 25, 23, 37, 39, 29, 34, 42, 45, 46, 49, 19, 23, 31, 33, 38, 31, 42, 48, 29, 41, 43, 47, 30, 41, 48, 33, 37, 30, 41, 33, 34, 49, 32, 33, 39, 31, 43, 42, 38, 40, 44, 43, 49, 50];
